#************************************************************************************
#*                   Generated by cif2cell 2.0.0 2023-05-29 17:49                   *
#*  T. Bjorkman, Comp. Phys. Commun. 182, 1183-1186 (2011). Please cite generously. *
#*                                                                                  *
#*                              Data obtained from COD                              *
#*                                    SnSe   ()                                     *
#*             Failed to get author information, No journal information             *
#************************************************************************************
# Structural parameters
acell    3*7.7624316804222  

rprim    1.000000000000000   0.000000000000000   0.000000000000000 
         0.000000000000000   1.000000000000000   0.000000000000000 
         0.000000000000000   0.000000000000000   5.588044361543267 
       
natom    12  
ntypat   2  
typat    1 1 1 1 1 1 2 2 2 2 2 2  
znucl    50 34  
xred     0.500000000000000   0.000000000000000   0.203296000000000 
         0.000000000000000   0.500000000000000   0.323085000000000 
         0.500000000000000   0.000000000000000   0.440106000000000 
         0.000000000000000   0.500000000000000   0.559894000000000 
         0.500000000000000   0.000000000000000   0.676915000000000 
         0.000000000000000   0.500000000000000   0.796704000000000 
         0.000000000000000   0.500000000000000   0.204680000000000 
         0.500000000000000   0.000000000000000   0.321701000000000 
         0.000000000000000   0.500000000000000   0.441490000000000 
         0.500000000000000   0.000000000000000   0.558510000000000 
         0.000000000000000   0.500000000000000   0.678299000000000 
         0.500000000000000   0.000000000000000   0.795320000000000 

diemac 12.0
ecut 22.5
ixc 11 #-101130
kptopt 1
ngkpt 8 8 1
prtden 1
iscf 17
nstep 150
#prtwf 0
toldfe 1.0d-6
prtcif 1

vdw_xc 5
vdw_tol 1.0d-10
