#************************************************************************************
#*                   Generated by cif2cell 2.0.0 2023-06-10 15:36                   *
#*  T. Bjorkman, Comp. Phys. Commun. 182, 1183-1186 (2011). Please cite generously. *
#*                                                                                  *
#*                              Data obtained from COD                              *
#*                                    None   ()                                     *
#*             Failed to get author information, No journal information             *
#************************************************************************************
# Structural parameters
vdw_xc 5
vdw_tol 1.0d-10
acell    3*7.7624316804222  

rprim    1.000000000000000   0.000000000000000   0.000000000000000 
         0.000000000000000   1.000000000000000   0.000000000000000 
         0.000000000000000   0.000000000000000   4.463877126432249 
       
natom    8  
ntypat   3  
typat    1 1 2 2 2 2 3 3  
znucl    50 34 30  
xred     0.500000000000000   0.000000000000000   0.254494000000000 
         0.000000000000000   0.500000000000000   0.404449000000000 
         0.500000000000000   0.000000000000000   0.402717000000000 
         0.000000000000000   0.500000000000000   0.256226000000000 
         0.500000000000000   0.000000000000000   0.582441000000000 
         0.000000000000000   0.500000000000000   0.745506000000000 
         0.500000000000000   0.500000000000000   0.663974000000000 
         0.000000000000000   0.000000000000000   0.663974000000000 
diemac 12.0
ecut 22.5
ixc 11 #-101130
kptopt 1
ngkpt 6 6 2
prtden 1
iscf 17
nstep 150
prtwf 0
toldfe 1.0d-7
prtcif 1
