#************************************************************************************
#*                   Generated by cif2cell 2.0.0 2023-06-12 1:10                    *
#*  T. Bjorkman, Comp. Phys. Commun. 182, 1183-1186 (2011). Please cite generously. *
#*                                                                                  *
#*                              Data obtained from COD                              *
#*                                    None   ()                                     *
#*             Failed to get author information, No journal information             *
#************************************************************************************
# Structural parameters
vdw_xc 5
vdw_tol 1.0d-10
acell    3*7.7624316804222  

rprim    1.000000000000000   0.000000000000000   0.000000000000000 
         0.000000000000000   1.000000000000000   0.000000000000000 
         0.000000000000000   0.000000000000000   7.762417526879994 
       
natom    18  
ntypat   3  
typat    1 1 1 1 1 1 1 2 2 2 2 2 2 2 2 2 3 3  
znucl    50 34 30  
xred     0.500000000000000   0.000000000000000   0.146350000000000 
         0.000000000000000   0.500000000000000   0.232584000000000 
         0.500000000000000   0.000000000000000   0.316825000000000 
         0.000000000000000   0.500000000000000   0.403059000000000 
         0.500000000000000   0.000000000000000   0.487301000000000 
         0.000000000000000   0.500000000000000   0.573535000000000 
         0.500000000000000   0.000000000000000   0.657776000000000 
         0.000000000000000   0.500000000000000   0.147346000000000 
         0.500000000000000   0.000000000000000   0.231588000000000 
         0.000000000000000   0.500000000000000   0.317822000000000 
         0.500000000000000   0.000000000000000   0.402063000000000 
         0.000000000000000   0.500000000000000   0.488297000000000 
         0.500000000000000   0.000000000000000   0.572538000000000 
         0.000000000000000   0.500000000000000   0.658772000000000 
         0.500000000000000   0.000000000000000   0.759877000000000 
         0.000000000000000   0.500000000000000   0.853650000000000 
         0.500000000000000   0.500000000000000   0.806764000000000 
         0.000000000000000   0.000000000000000   0.806764000000000 
      diemac 12.0
ecut 22.5
ixc 11 #-101130
kptopt 1
ngkpt 6 6 1
prtden 1
iscf 17
nstep 150
prtwf 0
toldfe 1.0d-7
prtcif 1
