#************************************************************************************
#*                   Generated by cif2cell 2.0.0 2023-06-12 23:29                   *
#*  T. Bjorkman, Comp. Phys. Commun. 182, 1183-1186 (2011). Please cite generously. *
#*                                                                                  *
#*                              Data obtained from COD                              *
#*                                    None   ()                                     *
#*             Failed to get author information, No journal information             *
#************************************************************************************
# Structural parameters
vdw_xc 5
vdw_tol 1.0d-10
acell    3*7.7624316804222  

rprim    1.000000000000000   0.000000000000000   0.000000000000000 
         0.000000000000000   1.000000000000000   0.000000000000000 
         0.000000000000001   0.000000000000001   8.391301024270993 
       
natom    20  
ntypat   3  
typat    1 1 1 1 1 1 1 1 2 2 2 2 2 2 2 2 2 2 3 3  
znucl    50 34 30  
xred     0.500000000000000   0.000000000000000   0.135382000000000 
         0.000000000000000   0.500000000000000   0.215153000000000 
         0.500000000000000   0.000000000000000   0.293081000000000 
         0.000000000000000   0.500000000000000   0.372852000000000 
         0.500000000000000   0.000000000000000   0.450780000000000 
         0.000000000000000   0.500000000000000   0.530551000000000 
         0.500000000000000   0.000000000000000   0.608479000000000 
         0.000000000000000   0.500000000000000   0.688251000000000 
         0.000000000000000   0.500000000000000   0.136303000000000 
         0.500000000000000   0.000000000000000   0.214231000000000 
         0.000000000000000   0.500000000000000   0.294003000000000 
         0.500000000000000   0.000000000000000   0.371931000000000 
         0.000000000000000   0.500000000000000   0.451702000000000 
         0.500000000000000   0.000000000000000   0.529630000000000 
         0.000000000000000   0.500000000000000   0.609401000000000 
         0.500000000000000   0.000000000000000   0.687329000000000 
         0.500000000000000   0.000000000000000   0.777873000000000 
         0.000000000000000   0.500000000000000   0.864618000000000 
         0.500000000000000   0.500000000000000   0.821246000000000 
         0.000000000000000   0.000000000000000   0.821246000000000 
      diemac 12.0
ecut 22.5
ixc 11 #-101130
kptopt 1
ngkpt 6 6 1
prtden 1
iscf 17
nstep 150
prtwf 0
toldfe 1.0d-7
prtcif 1
