#************************************************************************************
#*                   Generated by cif2cell 2.0.0 2023-05-29 17:49                   *
#*  T. Bjorkman, Comp. Phys. Commun. 182, 1183-1186 (2011). Please cite generously. *
#*                                                                                  *
#*                              Data obtained from COD                              *
#*                                    SnSe   ()                                     *
#*             Failed to get author information, No journal information             *
#************************************************************************************
# Structural parameters
ndtset 3
vdw_xc 5
vdw_tol 1.0d-10
acell 7.7624316804222 7.7624316804222 54.7529903023618


xred 0.499999999951311 0 0.161056898590942
     0 0.499999999951311 0.255956689223393
     0.499999999951311 0 0.348663787700118
     0 0.499999999951311 0.443563578332569
     0.499999999951311 0 0.536270676809293
     0 0.499999999951311 0.631170467441745
     0 0.499999999951311 0.162153232209374
     0.499999999951311 0 0.255124501570145
     0 0.499999999951311 0.350122641754254
     0.499999999951311 0 0.442925842039083
     0 0.499999999951311 0.537923982223191
     0.499999999951311 0 0.630727182508021
     0.499999999951311 0 0.896696788298954
     0 0.499999999951311 1
     0.499999999951311 0.499999999951311 0.948348394137385
     0 0 0.948348394137385

rprim    1.000000000000000   0.000000000000000   0.000000000000000 
         0.000000000000000   1.000000000000000   0.000000000000000 
         0.000000000000000   0.000000000000000   1.000000000000000
       
natom    16  
ntypat   3  
typat    1 1 1 1 1 1 2 2 2 2 2 2 2 2 3 3  
znucl    50 34 30  

diemac 12.0
ecut 22.5
ixc -101130
kptopt 1
ngkpt 8 8 1
prtden 1
iscf 17
prtcif 1
tolwfr 1.0d-20
nstep 300
nband 135
nstep1 1000

iscf2 -2
getden2 1
kptopt2 -5
ndivk2 10 12 18 8 8
kptbounds2 0.5 0.5 0  #M
           0 0 0.5    #Z
           0 0 0          #gamma
           0.5 0.5 0.5      #A
           0 0.5 0.5  #R
           0 0.5 0 #X

getwfk3 1
getden3 1
iscf3 -3
prtdos3 3
natsph3 4
dosdeltae3 0.001
iatsph3 1 7 14 15
