#************************************************************************************
#*                   Generated by cif2cell 2.0.0 2023-06-10 22:01                   *
#*  T. Bjorkman, Comp. Phys. Commun. 182, 1183-1186 (2011). Please cite generously. *
#*                                                                                  *
#*                              Data obtained from COD                              *
#*                                    None   ()                                     *
#*             Failed to get author information, No journal information             *
#************************************************************************************
# Structural parameters
vdw_xc 5
vdw_tol 1.0d-10
acell    3*7.7624316804222  

rprim    1.000000000000000   0.000000000000000   0.000000000000000 
         0.000000000000000   1.000000000000000   0.000000000000000 
         0.000000000000000   0.000000000000000   5.727778207864154 
       
natom    12  
ntypat   3  
typat    1 1 1 1 2 2 2 2 2 2 3 3  
znucl    50 34 30  
xred     0.500000000000000   0.000000000000000   0.198337000000000 
         0.000000000000000   0.500000000000000   0.315203000000000 
         0.500000000000000   0.000000000000000   0.429369000000000 
         0.000000000000000   0.500000000000000   0.546235000000000 
         0.000000000000000   0.500000000000000   0.199687000000000 
         0.500000000000000   0.000000000000000   0.313853000000000 
         0.000000000000000   0.500000000000000   0.430719000000000 
         0.500000000000000   0.000000000000000   0.544885000000000 
         0.500000000000000   0.000000000000000   0.674580000000000 
         0.000000000000000   0.500000000000000   0.801663000000000 
         0.500000000000000   0.500000000000000   0.738122000000000 
         0.000000000000000   0.000000000000000   0.738122000000000 
diemac 12.0
ecut 22.5
ixc 11 #-101130
kptopt 1
ngkpt 6 6 1
prtden 1
iscf 17
nstep 150
prtwf 0
toldfe 1.0d-7
prtcif 1
