#************************************************************************************
#*                   Generated by cif2cell 2.0.0 2023-05-29 17:49                   *
#*  T. Bjorkman, Comp. Phys. Commun. 182, 1183-1186 (2011). Please cite generously. *
#*                                                                                  *
#*                              Data obtained from COD                              *
#*                                    SnSe   ()                                     *
#*             Failed to get author information, No journal information             *
#************************************************************************************
# Structural parameters
vdw_xc 5
vdw_tol 1.0d-10
ndtset 3
acell    3*7.7624316804222  

rprim    1.000000000000000   0.000000000000000   0.000000000000000 
         0.000000000000000   1.000000000000000   0.000000000000000 
         0.000000000000000   0.000000000000000   2.941441467759833 
       
natom    4  
ntypat   2  
typat    1 1 2 2  
znucl    50 34  
xred     0.500000000000000   0.000000000000000   0.386215000000000 
         0.000000000000000   0.500000000000000   0.613785000000000 
         0.500000000000000   0.000000000000000   0.611156000000000 
         0.000000000000000   0.500000000000000   0.388844000000000 

diemac 12.0
ecut 22.5
ixc -101130
kptopt 1
ngkpt 12 12 4
prtden 1
iscf 17
prtcif 1
tolwfr 1.0d-20
nstep 300
nband 34
nstep1 1000

iscf2 -2
getden2 1
kptopt2 -5
ndivk2 10 12 18 8 8
kptbounds2 0.5 0.5 0  #M
           0 0 0.5    #Z
           0 0 0          #gamma
           0.5 0.5 0.5      #A
           0 0.5 0.5  #R
           0 0.5 0 #X

getwfk3 1
getden3 1
iscf3 -3
prtdos3 3
natsph3 4
dosdeltae3 0.001
iatsph3 1 2 3 4
