#************************************************************************************
#*                   Generated by cif2cell 2.0.0 2023-05-29 17:49                   *
#*  T. Bjorkman, Comp. Phys. Commun. 182, 1183-1186 (2011). Please cite generously. *
#*                                                                                  *
#*                              Data obtained from COD                              *
#*                                    SnSe   ()                                     *
#*             Failed to get author information, No journal information             *
#************************************************************************************
# Structural parameters
acell    3*7.7624316804222  

rprim    1.000000000000000   0.000000000000000   0.000000000000000 
         0.000000000000000   1.000000000000000   0.000000000000000 
         0.000000000000000   0.000000000000000   4.926393881542527 
       
natom    10  
ntypat   2  
typat    1 1 1 1 1 2 2 2 2 2  
znucl    50 34  
xred     0.500000000000000   0.000000000000000   0.230601000000000 
         0.000000000000000   0.500000000000000   0.366478000000000 
         0.500000000000000   0.000000000000000   0.499215000000000 
         0.000000000000000   0.500000000000000   0.635092000000000 
         0.500000000000000   0.000000000000000   0.767830000000000 
         0.000000000000000   0.500000000000000   0.232170000000000 
         0.500000000000000   0.000000000000000   0.364908000000000 
         0.000000000000000   0.500000000000000   0.500785000000000 
         0.500000000000000   0.000000000000000   0.633522000000000 
         0.000000000000000   0.500000000000000   0.769400000000000 

diemac 12.0
ecut 22.5
ixc 11 #-101130
kptopt 1
ngkpt 8 8 1
prtden 1
iscf 17
nstep 150
#prtwf 0
toldfe 1.0d-6
prtcif 1
vdw_xc 5
vdw_tol 1.0d-10
