#************************************************************************************
#*                   Generated by cif2cell 2.0.0 2023-05-29 17:49                   *
#*  T. Bjorkman, Comp. Phys. Commun. 182, 1183-1186 (2011). Please cite generously. *
#*                                                                                  *
#*                              Data obtained from COD                              *
#*                                    SnSe   ()                                     *
#*             Failed to get author information, No journal information             *
#************************************************************************************
# Structural parameters

acell    3*7.7624316804222  

rprim    1.000000000000000   0.000000000000000   0.000000000000000 
         0.000000000000000   1.000000000000000   0.000000000000000 
         0.000000000000000   0.000000000000000   4.264742914651550 
       
natom    8  
ntypat   2  
typat    1 1 1 1 2 2 2 2  
znucl    50 34  
xred     0.500000000000000   0.000000000000000   0.266377000000000 
         0.000000000000000   0.500000000000000   0.423334000000000 
         0.500000000000000   0.000000000000000   0.576666000000000 
         0.000000000000000   0.500000000000000   0.733623000000000 
         0.000000000000000   0.500000000000000   0.268190000000000 
         0.500000000000000   0.000000000000000   0.421521000000000 
         0.000000000000000   0.500000000000000   0.578479000000000 
         0.500000000000000   0.000000000000000   0.731810000000000 

diemac 12.0
ecut 22.5
ixc 11 #-101130
kptopt 1
ngkpt 8 8 1
prtden 1
iscf 17
nstep 150
#prtwf 0
toldfe 1.0d-6
prtcif 1
vdw_xc 5
vdw_tol 1.0d-10
