#************************************************************************************
#*                   Generated by cif2cell 2.0.0 2023-06-10 15:38                   *
#*  T. Bjorkman, Comp. Phys. Commun. 182, 1183-1186 (2011). Please cite generously. *
#*                                                                                  *
#*                              Data obtained from COD                              *
#*                                    None   ()                                     *
#*             Failed to get author information, No journal information             *
#************************************************************************************
# Structural parameters
vdw_xc 5
vdw_tol 1.0d-10
acell    3*7.7624316804222  

rprim    3.000000000000000   0.000000000000000   0.000000000000000 
         0.000000000000000   3.000000000000000   0.000000000000000 
         0.000000000000000   0.000000000000000   3.755289940701638 
       
natom    54  
ntypat   3  
typat    1 2 2 2 3 3 1 2 2 2 3 3 1 2 2 2 3 3 1 2 2 2 3 3 1 2 2 2 3 3 1 2 2 2 3 3 1 2 2 2 3 3 1 2 2 2 3 3 1 2 2 2 3 3
znucl    50 34 30  
xred       0.166666666666667 0 0.302514
      0 0.166666666666667 0.304574
      0.166666666666667 0 0.503651
      0 0.166666666666667 0.697486
      0.166666666666667 0.166666666666667 0.600569
      0 0 0.600569
      0.5 0 0.302514
      0.333333333333333 0.166666666666667 0.304574
      0.5 0 0.503651
      0.333333333333333 0.166666666666667 0.697486
      0.5 0.166666666666667 0.600569
      0.333333333333333 0 0.600569
      0.166666666666667 0.333333333333333 0.302514
      0 0.5 0.304574
      0.166666666666667 0.333333333333333 0.503651
      0 0.5 0.697486
      0.166666666666667 0.5 0.600569
      0 0.333333333333333 0.600569
      0.5 0.333333333333333 0.302514
      0.333333333333333 0.5 0.304574
      0.5 0.333333333333333 0.503651
      0.333333333333333 0.5 0.697486
      0.5 0.5 0.600569
      0.333333333333333 0.333333333333333 0.600569
      0.5 0.666666666666667 0.302514
      0.333333333333333 0.833333333333333 0.304574
      0.5 0.666666666666667 0.503651
      0.333333333333333 0.833333333333333 0.697486
      0.5 0.833333333333333 0.600569
      0.333333333333333 0.666666666666667 0.600569
      0.833333333333333 0.333333333333333 0.302514
      0.666666666666667 0.5 0.304574
      0.833333333333333 0.333333333333333 0.503651
      0.666666666666667 0.5 0.697486
      0.833333333333333 0.5 0.600569
      0.666666666666667 0.333333333333333 0.600569
      0.166666666666667 0.666666666666667 0.302514
      0 0.833333333333333 0.304574
      0.166666666666667 0.666666666666667 0.503651
      0 0.833333333333333 0.697486
      0.166666666666667 0.833333333333333 0.600569
      0 0.666666666666667 0.600569
      0.833333333333333 0 0.302514
      0.666666666666667 0.166666666666667 0.304574
      0.833333333333333 0 0.503651
      0.666666666666667 0.166666666666667 0.697486
      0.833333333333333 0.166666666666667 0.600569
      0.666666666666667 0 0.600569
      0.833333333333333 0.666666666666667 0.302514
      0.666666666666667 0.833333333333333 0.304574
      0.833333333333333 0.666666666666667 0.503651
      0.666666666666667 0.833333333333333 0.697486
      0.833333333333333 0.833333333333333 0.600569
      0.666666666666667 0.666666666666667 0.600569

diemac 12.0
ecut 22.5
ixc 11 #-101130
kptopt 1
ngkpt 8 8 2
prtden 1
iscf 17
nstep 150
#prtwf 0
toldfe 1.0d-7
prtcif 1
