#************************************************************************************
#*                   Generated by cif2cell 2.0.0 2023-05-29 17:49                   *
#*  T. Bjorkman, Comp. Phys. Commun. 182, 1183-1186 (2011). Please cite generously. *
#*                                                                                  *
#*                              Data obtained from COD                              *
#*                                    SnSe   ()                                     *
#*             Failed to get author information, No journal information             *
#************************************************************************************
# Structural parameters
ndtset 3
vdw_xc 5
vdw_tol 1.0d-10
acell    3*7.7624316804222  

rprim    1.000000000000000   0.000000000000000   0.000000000000000 
         0.000000000000000   1.000000000000000   0.000000000000000 
         0.000000000000001   0.000000000000001   8.234647498771819 
       
natom    20  
ntypat   2  
typat    1 1 1 1 1 1 1 1 1 1 2 2 2 2 2 2 2 2 2 2  
znucl    50 34  
xred     0.500000000000000   0.000000000000000   0.137957000000000 
         0.000000000000000   0.500000000000000   0.219246000000000 
         0.500000000000000   0.000000000000000   0.298656000000000 
         0.000000000000000   0.500000000000000   0.379945000000000 
         0.500000000000000   0.000000000000000   0.459356000000000 
         0.000000000000000   0.500000000000000   0.540644000000000 
         0.500000000000000   0.000000000000000   0.620055000000000 
         0.000000000000000   0.500000000000000   0.701344000000000 
         0.500000000000000   0.000000000000000   0.780754000000000 
         0.000000000000000   0.500000000000000   0.862043000000000 
         0.000000000000000   0.500000000000000   0.138896000000000 
         0.500000000000000   0.000000000000000   0.218307000000000 
         0.000000000000000   0.500000000000000   0.299596000000000 
         0.500000000000000   0.000000000000000   0.379006000000000 
         0.000000000000000   0.500000000000000   0.460295000000000 
         0.500000000000000   0.000000000000000   0.539705000000000 
         0.000000000000000   0.500000000000000   0.620994000000000 
         0.500000000000000   0.000000000000000   0.700404000000000 
         0.000000000000000   0.500000000000000   0.781693000000000 
         0.500000000000000   0.000000000000000   0.861104000000000 

diemac 12.0
ecut 22.5
ixc -101130
kptopt 1
ngkpt 8 8 1
prtden 1
iscf 17
prtcif 1
tolwfr 1.0d-20
nstep 300
nband 170
nstep1 1000

iscf2 -2
getden2 1
kptopt2 -5
ndivk2 10 12 18 8 8
kptbounds2 0.5 0.5 0  #M
           0 0 0.5    #Z
           0 0 0          #gamma
           0.5 0.5 0.5      #A
           0 0.5 0.5  #R
           0 0.5 0 #X

getwfk3 1
getden3 1
iscf3 -3
prtdos3 3
natsph3 2
dosdeltae3 0.001
iatsph3 1 20
