#************************************************************************************
#*                   Generated by cif2cell 2.0.0 2023-05-29 17:49                   *
#*  T. Bjorkman, Comp. Phys. Commun. 182, 1183-1186 (2011). Please cite generously. *
#*                                                                                  *
#*                              Data obtained from COD                              *
#*                                    SnSe   ()                                     *
#*             Failed to get author information, No journal information             *
#************************************************************************************
# Structural parameters
ndtset 3
vdw_xc 5
vdw_tol 1.0d-10
acell    3*7.7624316804222  

rprim    1.000000000000000   0.000000000000000   0.000000000000000 
         0.000000000000000   1.000000000000000   0.000000000000000 
         0.000000000000001   0.000000000000001   8.391301024270993 
       
natom    20  
ntypat   3  
typat    1 1 1 1 1 1 1 1 2 2 2 2 2 2 2 2 2 2 3 3  
znucl    50 34 30  
xred     0.500000000000000   0.000000000000000   0.135382000000000 
         0.000000000000000   0.500000000000000   0.215153000000000 
         0.500000000000000   0.000000000000000   0.293081000000000 
         0.000000000000000   0.500000000000000   0.372852000000000 
         0.500000000000000   0.000000000000000   0.450780000000000 
         0.000000000000000   0.500000000000000   0.530551000000000 
         0.500000000000000   0.000000000000000   0.608479000000000 
         0.000000000000000   0.500000000000000   0.688251000000000 
         0.000000000000000   0.500000000000000   0.136303000000000 
         0.500000000000000   0.000000000000000   0.214231000000000 
         0.000000000000000   0.500000000000000   0.294003000000000 
         0.500000000000000   0.000000000000000   0.371931000000000 
         0.000000000000000   0.500000000000000   0.451702000000000 
         0.500000000000000   0.000000000000000   0.529630000000000 
         0.000000000000000   0.500000000000000   0.609401000000000 
         0.500000000000000   0.000000000000000   0.687329000000000 
         0.500000000000000   0.000000000000000   0.777873000000000 
         0.000000000000000   0.500000000000000   0.864618000000000 
         0.500000000000000   0.500000000000000   0.821246000000000 
         0.000000000000000   0.000000000000000   0.821246000000000 

diemac 12.0
ecut 22.5
ixc -101130
kptopt 1
ngkpt 8 8 1
prtden 1
iscf 17
prtcif 1
tolwfr 1.0d-20
nstep 300
nband 165
nstep1 400

iscf2 -2
getden2 1
kptopt2 -5
ndivk2 10 12 18 8 8
kptbounds2 0.5 0.5 0  #M
           0 0 0.5    #Z
           0 0 0          #gamma
           0.5 0.5 0.5      #A
           0 0.5 0.5  #R
           0 0.5 0 #X

getwfk3 1
getden3 1
iscf3 -3
prtdos3 3
natsph3 4
dosdeltae3 0.001
iatsph3 1 9 18 19
