#************************************************************************************
#*                   Generated by cif2cell 2.0.0 2023-05-29 17:49                   *
#*  T. Bjorkman, Comp. Phys. Commun. 182, 1183-1186 (2011). Please cite generously. *
#*                                                                                  *
#*                              Data obtained from COD                              *
#*                                    SnSe   ()                                     *
#*             Failed to get author information, No journal information             *
#************************************************************************************
# Structural parameters
vdw_xc 5
vdw_tol 1.0d-10
acell    3*7.7624316804222  

rprim    1.000000000000000   0.000000000000000   0.000000000000000 
         0.000000000000000   1.000000000000000   0.000000000000000 
         0.000000000000000   0.000000000000000   7.572997018771080 
       
natom    18  
ntypat   2  
typat    1 1 1 1 1 1 1 1 1 2 2 2 2 2 2 2 2 2  
znucl    50 34  
xred     0.500000000000000   0.000000000000000   0.150010000000000 
         0.000000000000000   0.500000000000000   0.238401000000000 
         0.500000000000000   0.000000000000000   0.324750000000000 
         0.000000000000000   0.500000000000000   0.413141000000000 
         0.500000000000000   0.000000000000000   0.499489000000000 
         0.000000000000000   0.500000000000000   0.587880000000000 
         0.500000000000000   0.000000000000000   0.674229000000000 
         0.000000000000000   0.500000000000000   0.762620000000000 
         0.500000000000000   0.000000000000000   0.848968000000000 
         0.000000000000000   0.500000000000000   0.151032000000000 
         0.500000000000000   0.000000000000000   0.237380000000000 
         0.000000000000000   0.500000000000000   0.325771000000000 
         0.500000000000000   0.000000000000000   0.412120000000000 
         0.000000000000000   0.500000000000000   0.500511000000000 
         0.500000000000000   0.000000000000000   0.586859000000000 
         0.000000000000000   0.500000000000000   0.675250000000000 
         0.500000000000000   0.000000000000000   0.761599000000000 
         0.000000000000000   0.500000000000000   0.849990000000000 

diemac 12.0
ecut 22.5
ixc 11 #-101130
kptopt 1
ngkpt 8 8 1
prtden 1
iscf 17
nstep 150
#prtwf 0
toldfe 1.0d-6
prtcif 1
