#************************************************************************************
#*                   Generated by cif2cell 2.0.0 2023-05-29 17:49                   *
#*  T. Bjorkman, Comp. Phys. Commun. 182, 1183-1186 (2011). Please cite generously. *
#*                                                                                  *
#*                              Data obtained from COD                              *
#*                                    SnSe   ()                                     *
#*             Failed to get author information, No journal information             *
#************************************************************************************
# Structural parameters
vdw_xc 5
vdw_tol 1.0d-10
acell    3*7.7624316804222  

rprim    1.000000000000000   0.000000000000000   0.000000000000000 
         0.000000000000000   1.000000000000000   0.000000000000000 
         0.000000000000001   0.000000000000001   8.234647498771819 
       
natom    20  
ntypat   2  
typat    1 1 1 1 1 1 1 1 1 1 2 2 2 2 2 2 2 2 2 2  
znucl    50 34  
xred     0.500000000000000   0.000000000000000   0.137957000000000 
         0.000000000000000   0.500000000000000   0.219246000000000 
         0.500000000000000   0.000000000000000   0.298656000000000 
         0.000000000000000   0.500000000000000   0.379945000000000 
         0.500000000000000   0.000000000000000   0.459356000000000 
         0.000000000000000   0.500000000000000   0.540644000000000 
         0.500000000000000   0.000000000000000   0.620055000000000 
         0.000000000000000   0.500000000000000   0.701344000000000 
         0.500000000000000   0.000000000000000   0.780754000000000 
         0.000000000000000   0.500000000000000   0.862043000000000 
         0.000000000000000   0.500000000000000   0.138896000000000 
         0.500000000000000   0.000000000000000   0.218307000000000 
         0.000000000000000   0.500000000000000   0.299596000000000 
         0.500000000000000   0.000000000000000   0.379006000000000 
         0.000000000000000   0.500000000000000   0.460295000000000 
         0.500000000000000   0.000000000000000   0.539705000000000 
         0.000000000000000   0.500000000000000   0.620994000000000 
         0.500000000000000   0.000000000000000   0.700404000000000 
         0.000000000000000   0.500000000000000   0.781693000000000 
         0.500000000000000   0.000000000000000   0.861104000000000 

diemac 12.0
ecut 22.5
ixc 11 #-101130
kptopt 1
ngkpt 8 8 1
prtden 1
iscf 17
nstep 150
#prtwf 0
toldfe 1.0d-6
prtcif 1
