#************************************************************************************
#*                   Generated by cif2cell 2.0.0 2023-05-29 17:49                   *
#*  T. Bjorkman, Comp. Phys. Commun. 182, 1183-1186 (2011). Please cite generously. *
#*                                                                                  *
#*                              Data obtained from COD                              *
#*                                    SnSe   ()                                     *
#*             Failed to get author information, No journal information             *
#************************************************************************************
# Structural parameters
vdw_xc 5
vdw_tol 1.0d-10
acell    3*7.7624316804222  

rprim    1.000000000000000   0.000000000000000   0.000000000000000 
         0.000000000000000   1.000000000000000   0.000000000000000 
         0.000000000000000   0.000000000000000   6.911346051880103 
       
natom    16  
ntypat   2  
typat    1 1 1 1 1 1 1 1 2 2 2 2 2 2 2 2  
znucl    50 34  
xred     0.500000000000000   0.000000000000000   0.164372000000000 
         0.000000000000000   0.500000000000000   0.261224000000000 
         0.500000000000000   0.000000000000000   0.355840000000000 
         0.000000000000000   0.500000000000000   0.452692000000000 
         0.500000000000000   0.000000000000000   0.547308000000000 
         0.000000000000000   0.500000000000000   0.644160000000000 
         0.500000000000000   0.000000000000000   0.738776000000000 
         0.000000000000000   0.500000000000000   0.835628000000000 
         0.000000000000000   0.500000000000000   0.165490000000000 
         0.500000000000000   0.000000000000000   0.260106000000000 
         0.000000000000000   0.500000000000000   0.356958000000000 
         0.500000000000000   0.000000000000000   0.451574000000000 
         0.000000000000000   0.500000000000000   0.548426000000000 
         0.500000000000000   0.000000000000000   0.643042000000000 
         0.000000000000000   0.500000000000000   0.739894000000000 
         0.500000000000000   0.000000000000000   0.834510000000000 

diemac 12.0
ecut 22.5
ixc 11 #-101130
kptopt 1
ngkpt 8 8 1
prtden 1
iscf 17
nstep 150
#prtwf 0
toldfe 1.0d-6
prtcif 1
