#************************************************************************************
#*                   Generated by cif2cell 2.0.0 2023-06-12 19:40                   *
#*  T. Bjorkman, Comp. Phys. Commun. 182, 1183-1186 (2011). Please cite generously. *
#*                                                                                  *
#*                              Data obtained from COD                              *
#*                                    None   ()                                     *
#*             Failed to get author information, No journal information             *
#************************************************************************************
# Structural parameters
vdw_xc 5
vdw_tol 1.0d-10
acell 7.7624316804222 7.7624316804222 49.7492520578109


xred 0.499999999951311 0 0.177255867011448
     0 0.499999999951311 0.281700599369569
     0.499999999951311 0 0.383732100425256
     0 0.499999999951311 0.488176832783378
     0.499999999951311 0 0.590208333839065
     0 0.499999999951311 0.178462468950073
     0.499999999951311 0 0.280493983718352
     0 0.499999999951311 0.386406468002524
     0.499999999951311 0 0.488827027443411
     0 0.499999999951311 0.593669992272616
     0.499999999951311 0 0.885991294459798
     0 0.499999999951311 1
     0.499999999951311 0.499999999951311 0.942995647216554
     0 0 0.942995647216554 

rprim    1.000000000000000   0.000000000000000   0.000000000000000 
         0.000000000000000   1.000000000000000   0.000000000000000 
         0.000000000000000   0.000000000000000   1.000000000000000
       
natom    14  
ntypat   3  
typat    1 1 1 1 1 2 2 2 2 2 2 2 3 3  
znucl    50 34 30  

      diemac 12.0
ecut 22.5
ixc 11 #-101130
kptopt 1
ngkpt 6 6 1
prtden 1
iscf 17
nstep 150
prtwf 0
toldfe 1.0d-6
prtcif 1
